Instance: E076-14s.dat
Class:  3
   75 --- number of customers (no depot)
   17 --- number of vehicles
  152 --- number of items
Capacity - height - width of vehicles
   100     40     20
Node - x - y - demand
    0    40.0    40.0     0.0
    1    22.0    22.0    18.0
    2    36.0    26.0    26.0
    3    21.0    45.0    11.0
    4    45.0    35.0    30.0
    5    55.0    20.0    21.0
    6    33.0    34.0    19.0
    7    50.0    50.0    15.0
    8    55.0    45.0    16.0
    9    26.0    59.0    29.0
   10    40.0    66.0    26.0
   11    55.0    65.0    37.0
   12    35.0    51.0    16.0
   13    62.0    35.0    12.0
   14    62.0    57.0    31.0
   15    62.0    24.0     8.0
   16    21.0    36.0    19.0
   17    33.0    44.0    20.0
   18     9.0    56.0    13.0
   19    62.0    48.0    15.0
   20    66.0    14.0    22.0
   21    44.0    13.0    28.0
   22    26.0    13.0    12.0
   23    11.0    28.0     6.0
   24     7.0    43.0    27.0
   25    17.0    64.0    14.0
   26    41.0    46.0    18.0
   27    55.0    34.0    17.0
   28    35.0    16.0    29.0
   29    52.0    26.0    13.0
   30    43.0    26.0    22.0
   31    31.0    76.0    25.0
   32    22.0    53.0    28.0
   33    26.0    29.0    27.0
   34    50.0    40.0    19.0
   35    55.0    50.0    10.0
   36    54.0    10.0    12.0
   37    60.0    15.0    14.0
   38    47.0    66.0    24.0
   39    30.0    60.0    16.0
   40    30.0    50.0    33.0
   41    12.0    17.0    15.0
   42    15.0    14.0    11.0
   43    16.0    19.0    18.0
   44    21.0    48.0    17.0
   45    50.0    30.0    21.0
   46    51.0    42.0    27.0
   47    50.0    15.0    19.0
   48    48.0    21.0    20.0
   49    12.0    38.0     5.0
   50    15.0    56.0    22.0
   51    29.0    39.0    12.0
   52    54.0    38.0    19.0
   53    55.0    57.0    22.0
   54    67.0    41.0    16.0
   55    10.0    70.0     7.0
   56     6.0    25.0    26.0
   57    65.0    27.0    14.0
   58    40.0    60.0    21.0
   59    70.0    64.0    24.0
   60    64.0     4.0    13.0
   61    36.0     6.0    15.0
   62    30.0    20.0    18.0
   63    20.0    30.0    11.0
   64    15.0     5.0    28.0
   65    50.0    70.0     9.0
   66    57.0    72.0    37.0
   67    45.0    42.0    30.0
   68    38.0    33.0    10.0
   69    50.0     4.0     8.0
   70    66.0     8.0    11.0
   71    59.0     5.0     3.0
   72    35.0    60.0     1.0
   73    27.0    24.0     6.0
   74    40.0    20.0    10.0
   75    40.0    37.0    20.0
Node - number of items - h - w for each item
    0   0
    1   1   21    2
    2   1   11    6
    3   3    6   10    6    9   18    4
    4   1    7   15
    5   3   10    7    7    7   17    3
    6   3   17    3   16    3   14    3
    7   2   15    6   12    4
    8   1   11    7
    9   3    7   15   13    5   11    5
   10   3    4   16   12    8   21    3
   11   2   13    7   19    4
   12   2    8   15   11    6
   13   1   15    4
   14   3    6    9    6    9    9    6
   15   2    7   13   27    3
   16   3    5   11    7    9    9    6
   17   3    8   15   12    5   19    3
   18   3   13    7   18    3   13    3
   19   2    5   15   31    4
   20   1   19    3
   21   1   18    3
   22   2    7   14    8    7
   23   1    6   10
   24   3    9    6   21    4   16    4
   25   2    5   14   15    6
   26   2   16    4   27    3
   27   3    5   13   15    7   20    3
   28   3    7   10   24    3   24    3
   29   1   15    3
   30   2    7   11   13    7
   31   3    6   15    4   13    6    7
   32   3   15    8   11    6   29    4
   33   2   27    3   23    2
   34   3    6   13    6   10   15    6
   35   2   17    4   18    2
   36   3    5   12    7   11   23    4
   37   1   18    2
   38   1   11    8
   39   2    5    8   22    2
   40   1   12    5
   41   2    8    7   12    4
   42   1    8   10
   43   1   18    3
   44   3    7   13   10    7   10    5
   45   3    6   11    9    5   19    2
   46   3   14    5   23    4   24    3
   47   3    7    7   25    3   20    2
   48   3    5   10   13    8   12    5
   49   2    6    9   10    4
   50   1    7   13
   51   2   23    3   18    2
   52   2    7   15   16    5
   53   3   13    7    8    6   22    2
   54   1   13    8
   55   2    9    6   31    2
   56   1    4   15
   57   3   14    6   10    6    6    6
   58   1    8   15
   59   2    5   11    9    7
   60   3    6   10   16    6   30    3
   61   3    5   12   21    3   13    3
   62   2    4    9    5    6
   63   3    6   15   12    7   12    6
   64   2    6   14   13    7
   65   1   14    3
   66   1   28    3
   67   1   27    3
   68   1   13    5
   69   1   29    3
   70   3    5   14   12    4   15    3
   71   1   11    8
   72   1    4   13
   73   1   14    5
   74   2    5   16    4   13
   75   3    7   16    7   13   29    3
